(declare-fun var0 () String)
(assert (RegexIn var0 (RegexConcat (RegexPlus (RegexStar (RegexUnion (RegexStar (RegexPlus (RegexPlus (RegexStar (RegexPlus (Str2Reg "1")))))) (RegexStar (RegexPlus (RegexPlus (RegexPlus (RegexStar (Str2Reg "2"))))))))) (RegexStar (RegexPlus (RegexStar (RegexStar (RegexStar (RegexPlus (RegexStar (RegexPlus (Str2Reg "0"))))))))))))
(assert (<= 15 (Length var0)))
(check-sat)